unsat
(:max-memory         18.06
 :memory             17.96
 :nlsat-conflicts    1
 :nlsat-propagations 6
 :nlsat-stages       1
 :num-allocs         43876
 :rlimit-count       4234
 :time               0.00
 :total-time         0.01)
